n = 21;
lu = [|-298, -193
      |-417, 186
      |-253, 16
      |-318, 277
      |226, 316
      |-88, 370
      |-360, -204
      |-391, -166
      |-114, 174
      |-258, 124
      |260, 309
      |-1, 284
      |-392, 149
      |-420, 162
      |-171, -123
      |-247, -10
      |-257, 429
      |-327, 155
      |102, 305
      |138, 351
      |-379, 274|];
